
n_res = 8;
rcap = [114, 114, 95, 110, 762, 848, 816, 730];
rtype = [1, 1, 1, 1, 2, 2, 2, 2];
n_tasks = 50;
modes =  [{1, 2, 3}, {4, 5, 6}, {7, 8, 9}, {10, 11, 12}, {13, 14, 15}, {16, 17, 18}, {19, 20, 21}, {22, 23, 24}, {25, 26, 27}, {28, 29, 30}, {31, 32, 33}, {34, 35, 36}, {37, 38, 39}, {40, 41, 42}, {43, 44, 45}, {46, 47, 48}, {49, 50, 51}, {52, 53, 54}, {55, 56, 57}, {58, 59, 60}, {61, 62, 63}, {64, 65, 66}, {67, 68, 69}, {70, 71, 72}, {73, 74, 75}, {76, 77, 78}, {79, 80, 81}, {82, 83, 84}, {85, 86, 87}, {88, 89, 90}, {91, 92, 93}, {94, 95, 96}, {97, 98, 99}, {100, 101, 102}, {103, 104, 105}, {106, 107, 108}, {109, 110, 111}, {112, 113, 114}, {115, 116, 117}, {118, 119, 120}, {121, 122, 123}, {124, 125, 126}, {127, 128, 129}, {130, 131, 132}, {133, 134, 135}, {136, 137, 138}, {139, 140, 141}, {142, 143, 144}, {145, 146, 147}, {148, 149, 150}];
succ =  [{17, 15, 12, 11, 9}, {33, 30, 17, 15, 13, 11}, {36, 34, 29, 25, 22, 21, 20, 19, 18, 16, 15}, {35, 34, 33, 22, 21, 16, 15, 13}, {34, 33, 30, 23, 21, 15, 13}, {36, 30, 26, 14, 12}, {35, 34, 24, 22, 21, 15, 13}, {34, 33, 31, 29, 24, 22, 17}, {36, 34, 33, 28, 23, 16}, {36, 35, 34, 29, 28, 26, 24, 22}, {34, 29, 25, 22, 16}, {34, 29, 27, 21, 20}, {36, 31, 29, 28, 27, 26}, {34, 31, 29, 28, 24}, {40, 39, 31, 28, 27, 26}, {50, 39, 31, 26, 24}, {42, 36, 35, 32, 21}, {50, 49, 42, 41, 40, 38, 37, 35, 33}, {42, 40, 38, 28, 26}, {50, 49, 42, 38, 32, 31}, {47, 40, 39, 28}, {39, 37, 27}, {50, 49, 47, 42, 41, 39, 37}, {46, 40, 27}, {49, 48, 45, 41, 32}, {48, 45, 41, 32}, {49, 48, 44, 42, 38}, {50, 49, 46, 45, 44, 41}, {49, 45, 39, 37}, {48, 46, 41, 35}, {48, 46, 45, 44, 41}, {47, 43, 37}, {46, 39}, {50, 48, 47}, {45, 44, 43}, {38}, {46, 44}, {47, 43}, {44, 43}, {48, 45}, {43}, {45}, {}, {}, {}, {}, {}, {}, {}, {}];
n_opt = 150;
dur = [16, 20, 24, 7, 20, 28, 15, 28, 29, 5, 6, 24, 5, 10, 14, 9, 10, 22, 5, 14, 23, 7, 25, 29, 14, 15, 27, 5, 16, 19, 1, 8, 23, 1, 23, 29, 8, 12, 16, 5, 6, 18, 12, 14, 30, 14, 17, 22, 3, 13, 26, 12, 17, 27, 5, 7, 29, 11, 14, 20, 15, 21, 27, 1, 5, 13, 4, 6, 27, 13, 24, 26, 4, 26, 27, 6, 11, 23, 8, 20, 23, 5, 12, 21, 8, 11, 17, 3, 13, 20, 6, 15, 17, 17, 19, 26, 4, 22, 23, 2, 18, 23, 2, 10, 18, 3, 10, 12, 2, 6, 22, 11, 26, 27, 7, 8, 21, 1, 27, 30, 3, 4, 18, 23, 24, 28, 7, 21, 23, 12, 25, 30, 20, 22, 29, 5, 8, 16, 8, 15, 21, 10, 13, 28, 5, 18, 24, 2, 15, 16];
rreq = [|29, 26, 22, 26, 24, 23, 19, 18, 7, 24, 16, 8, 24, 17, 12, 21, 16, 13, 27, 19, 16, 12, 11, 10, 14, 14, 13, 18, 16, 15, 29, 29, 29, 22, 12, 9, 13, 6, 4, 26, 22, 19, 13, 9, 8, 23, 12, 8, 11, 9, 8, 13, 9, 7, 17, 16, 6, 24, 18, 15, 11, 6, 5, 26, 15, 7, 29, 24, 22, 13, 11, 9, 29, 21, 13, 22, 15, 9, 15, 7, 6, 10, 10, 9, 26, 25, 25, 11, 9, 5, 14, 9, 8, 18, 18, 12, 20, 20, 20, 11, 9, 8, 24, 20, 19, 23, 20, 16, 19, 15, 13, 7, 7, 5, 27, 15, 12, 14, 9, 8, 19, 18, 16, 26, 22, 14, 11, 9, 9, 25, 25, 25, 3, 3, 3, 26, 14, 8, 28, 23, 19, 4, 4, 3, 13, 11, 8, 20, 18, 11
 |25, 19, 15, 15, 15, 15, 24, 20, 19, 18, 18, 15, 15, 11, 8, 20, 15, 7, 25, 14, 11, 21, 15, 6, 23, 22, 22, 16, 9, 5, 22, 21, 21, 28, 18, 15, 24, 17, 12, 13, 12, 10, 29, 28, 27, 9, 7, 7, 21, 19, 9, 11, 8, 6, 25, 22, 17, 26, 23, 21, 25, 25, 25, 19, 19, 19, 20, 20, 16, 22, 17, 9, 17, 17, 17, 15, 9, 6, 24, 19, 19, 20, 12, 10, 28, 27, 27, 23, 12, 10, 26, 21, 13, 29, 17, 8, 20, 18, 8, 20, 19, 19, 26, 25, 24, 12, 10, 6, 9, 8, 8, 20, 12, 4, 23, 16, 8, 23, 19, 16, 16, 10, 3, 24, 21, 17, 14, 14, 12, 18, 17, 15, 24, 19, 15, 25, 17, 11, 20, 18, 18, 29, 28, 27, 28, 22, 19, 14, 9, 6
 |2, 2, 2, 10, 10, 10, 15, 15, 11, 16, 12, 11, 24, 19, 16, 24, 21, 15, 10, 6, 3, 27, 27, 27, 12, 11, 6, 9, 5, 4, 17, 14, 12, 28, 20, 12, 22, 17, 9, 21, 11, 6, 9, 9, 9, 4, 3, 3, 5, 3, 1, 14, 9, 4, 21, 20, 15, 23, 16, 11, 20, 15, 13, 27, 27, 27, 23, 16, 12, 21, 18, 15, 28, 24, 23, 12, 10, 9, 20, 16, 13, 16, 14, 14, 23, 20, 14, 16, 15, 15, 9, 8, 7, 25, 23, 20, 15, 13, 4, 18, 12, 11, 21, 19, 8, 21, 21, 21, 15, 12, 9, 8, 7, 6, 10, 9, 8, 24, 19, 14, 3, 3, 1, 16, 11, 8, 13, 13, 10, 12, 12, 12, 23, 22, 9, 4, 2, 2, 11, 11, 9, 10, 9, 2, 22, 21, 20, 4, 2, 2
 |17, 14, 13, 11, 9, 8, 27, 17, 10, 15, 12, 11, 25, 24, 24, 24, 23, 16, 28, 19, 14, 21, 19, 18, 13, 10, 5, 23, 22, 14, 10, 8, 6, 20, 13, 11, 13, 12, 10, 8, 8, 7, 7, 5, 1, 10, 7, 6, 19, 19, 19, 14, 6, 6, 28, 26, 23, 5, 3, 3, 25, 19, 15, 27, 26, 25, 19, 13, 10, 13, 13, 12, 25, 23, 21, 26, 26, 26, 20, 17, 17, 21, 19, 10, 11, 10, 10, 25, 24, 13, 17, 17, 17, 20, 17, 12, 21, 20, 20, 28, 20, 11, 9, 7, 4, 22, 20, 18, 13, 13, 11, 15, 14, 12, 23, 16, 12, 27, 24, 22, 28, 19, 9, 30, 24, 20, 22, 18, 18, 12, 11, 11, 29, 13, 9, 24, 10, 5, 26, 26, 24, 17, 14, 10, 24, 23, 21, 20, 15, 12
 |6, 5, 4, 22, 19, 16, 23, 21, 15, 29, 24, 16, 8, 8, 7, 5, 2, 1, 12, 10, 7, 21, 15, 13, 9, 9, 7, 17, 14, 13, 27, 25, 25, 21, 15, 8, 20, 15, 14, 13, 9, 4, 17, 12, 5, 30, 30, 30, 25, 25, 25, 28, 26, 25, 10, 7, 6, 8, 6, 2, 14, 12, 8, 25, 25, 25, 18, 12, 10, 27, 25, 19, 18, 16, 10, 14, 13, 12, 22, 22, 22, 14, 13, 13, 22, 20, 19, 22, 9, 7, 28, 24, 20, 10, 7, 4, 12, 9, 8, 26, 23, 21, 20, 19, 17, 26, 16, 10, 9, 8, 6, 22, 20, 20, 22, 22, 22, 28, 20, 7, 13, 12, 11, 12, 12, 12, 9, 8, 6, 20, 16, 9, 5, 4, 3, 27, 17, 9, 25, 25, 24, 8, 7, 4, 23, 19, 8, 12, 11, 11
 |24, 16, 11, 25, 24, 21, 25, 20, 15, 19, 18, 14, 12, 11, 10, 20, 16, 15, 30, 15, 11, 17, 13, 9, 21, 19, 19, 27, 19, 14, 10, 7, 6, 17, 11, 10, 23, 20, 19, 5, 5, 3, 17, 12, 4, 26, 25, 19, 28, 19, 10, 28, 19, 14, 15, 15, 12, 12, 9, 1, 26, 24, 22, 29, 29, 28, 28, 21, 16, 10, 10, 9, 26, 26, 25, 12, 8, 6, 24, 20, 15, 16, 9, 2, 12, 12, 12, 20, 15, 10, 17, 17, 12, 21, 14, 7, 24, 17, 16, 20, 15, 13, 22, 16, 14, 24, 22, 19, 18, 17, 15, 27, 17, 8, 26, 22, 18, 19, 15, 4, 17, 11, 5, 27, 26, 23, 29, 26, 24, 15, 15, 13, 20, 18, 18, 28, 26, 23, 22, 14, 12, 21, 16, 7, 13, 10, 3, 29, 24, 17
 |28, 16, 14, 19, 15, 11, 19, 14, 8, 24, 19, 17, 26, 23, 14, 25, 22, 21, 23, 22, 21, 17, 15, 11, 8, 6, 5, 11, 8, 6, 21, 15, 5, 15, 15, 15, 24, 16, 8, 19, 19, 19, 26, 26, 26, 20, 17, 14, 25, 25, 25, 21, 13, 4, 27, 25, 25, 27, 23, 22, 18, 11, 5, 4, 4, 4, 20, 20, 6, 19, 18, 13, 7, 6, 4, 26, 26, 26, 22, 12, 11, 25, 25, 24, 22, 21, 21, 24, 21, 20, 11, 9, 9, 7, 7, 7, 17, 17, 17, 20, 20, 20, 8, 5, 5, 22, 16, 7, 24, 24, 24, 26, 18, 15, 21, 12, 8, 8, 8, 7, 7, 6, 5, 17, 15, 10, 26, 25, 23, 7, 7, 6, 22, 17, 15, 13, 10, 7, 19, 17, 17, 20, 13, 9, 25, 23, 18, 26, 22, 20
 |25, 21, 15, 22, 18, 11, 19, 15, 10, 7, 4, 3, 9, 5, 2, 14, 13, 12, 15, 7, 7, 16, 15, 14, 18, 13, 3, 4, 4, 3, 17, 15, 14, 11, 10, 9, 18, 17, 16, 27, 23, 21, 22, 17, 15, 23, 21, 20, 23, 18, 10, 11, 11, 11, 20, 18, 8, 13, 9, 4, 26, 23, 20, 16, 15, 15, 20, 17, 17, 22, 16, 14, 17, 13, 6, 25, 12, 9, 19, 13, 12, 27, 21, 13, 25, 23, 20, 28, 24, 19, 11, 10, 10, 17, 12, 6, 20, 20, 9, 28, 27, 24, 7, 6, 5, 26, 21, 14, 21, 20, 17, 10, 9, 8, 8, 5, 3, 13, 10, 9, 13, 11, 4, 22, 21, 18, 24, 22, 22, 25, 10, 8, 6, 3, 3, 4, 4, 2, 20, 18, 18, 26, 25, 23, 16, 13, 7, 14, 10, 7|];